56
150
105	2
104	3
102	3
101	1
100	2
98	3
97	2
96	1
95	3
94	1
91	3
90	2
89	1
88	2
86	4
83	2
82	2
81	3
80	1
79	2
77	1
76	3
75	1
74	2
73	3
72	1
71	2
70	1
69	1
68	2
67	1
66	1
64	1
60	1
59	1
58	1
57	1
56	2
54	3
53	1
52	1
50	2
48	3
47	1
46	3
45	1
44	1
41	3
40	2
38	2
36	3
35	1
34	1
33	1
32	1
30	1
